<number of tasks>
250

<cycle time>
1000

<order strength>
0.595


<task times>
1 188
2 215
3 285
4 75
5 105
6 137
7 44
8 308
9 80
10 238
11 436
12 44
13 68
14 187
15 165
16 247
17 60
18 460
19 115
20 197
21 334
22 150
23 184
24 301
25 196
26 319
27 59
28 219
29 225
30 291
31 276
32 447
33 59
34 160
35 543
36 354
37 46
38 186
39 298
40 321
41 391
42 25
43 68
44 534
45 109
46 25
47 214
48 594
49 106
50 563
51 241
52 27
53 197
54 102
55 273
56 178
57 97
58 171
59 23
60 88
61 27
62 77
63 565
64 329
65 137
66 188
67 360
68 188
69 185
70 116
71 76
72 59
73 138
74 384
75 47
76 94
77 46
78 128
79 62
80 502
81 82
82 269
83 232
84 63
85 549
86 73
87 41
88 115
89 349
90 156
91 71
92 582
93 175
94 99
95 524
96 479
97 107
98 58
99 235
100 159
101 55
102 162
103 349
104 77
105 169
106 455
107 38
108 502
109 159
110 456
111 161
112 264
113 28
114 253
115 90
116 45
117 447
118 491
119 245
120 162
121 509
122 515
123 65
124 195
125 127
126 176
127 227
128 212
129 27
130 280
131 165
132 135
133 218
134 208
135 477
136 280
137 296
138 120
139 260
140 310
141 23
142 122
143 367
144 111
145 49
146 164
147 93
148 61
149 447
150 439
151 68
152 183
153 102
154 220
155 49
156 39
157 531
158 560
159 405
160 470
161 272
162 592
163 151
164 302
165 223
166 32
167 43
168 165
169 311
170 267
171 115
172 79
173 514
174 35
175 367
176 305
177 238
178 386
179 343
180 224
181 535
182 122
183 222
184 183
185 69
186 34
187 40
188 271
189 116
190 232
191 132
192 24
193 142
194 200
195 97
196 261
197 326
198 398
199 172
200 91
201 204
202 305
203 559
204 439
205 111
206 167
207 251
208 164
209 93
210 221
211 522
212 518
213 251
214 153
215 75
216 273
217 80
218 115
219 164
220 82
221 261
222 45
223 252
224 200
225 94
226 92
227 58
228 199
229 174
230 27
231 411
232 152
233 537
234 39
235 53
236 142
237 188
238 103
239 70
240 208
241 520
242 214
243 187
244 47
245 325
246 110
247 211
248 96
249 42
250 93

<precedence relations>
1,11
2,11
3,11
4,11
5,11
6,11
7,75
8,207
9,156
10,12
10,13
10,14
10,15
10,16
10,17
10,18
10,19
10,20
10,29
11,21
11,22
11,23
11,24
11,25
11,26
11,28
11,29
11,30
12,213
13,178
14,178
15,75
16,75
17,58
18,121
19,27
19,74
20,35
20,36
20,49
20,57
21,75
22,31
22,32
22,33
22,34
22,63
22,74
23,32
23,33
23,36
23,47
23,95
24,32
24,33
24,38
25,31
25,46
25,52
26,31
26,35
26,38
26,52
27,92
28,92
29,31
29,37
30,167
30,191
30,192
31,58
32,92
33,92
34,121
35,156
36,156
37,41
37,42
37,44
37,45
38,39
38,40
38,43
38,46
39,178
40,128
41,58
42,107
43,121
44,156
45,47
45,52
45,56
45,95
46,47
46,48
46,49
46,50
46,51
46,53
47,75
48,75
49,58
50,58
51,92
52,156
53,54
53,55
53,56
53,57
53,59
53,60
53,61
53,62
53,63
53,64
54,222
55,178
56,75
57,128
58,65
58,66
58,67
58,68
58,69
58,70
58,71
58,72
58,73
59,92
60,92
61,92
62,92
63,107
64,74
64,172
65,75
66,78
66,92
67,75
67,81
68,75
69,75
69,81
70,75
70,76
70,77
71,78
71,80
71,99
72,77
73,79
73,117
73,121
73,137
74,120
74,121
74,181
75,82
75,83
75,84
75,85
75,86
75,87
75,88
75,96
75,97
76,92
77,107
78,207
79,207
80,156
81,89
82,128
83,121
84,121
85,118
85,124
85,125
86,90
86,91
86,92
86,94
86,98
87,90
87,91
87,99
87,100
87,101
88,92
89,93
89,95
89,96
89,97
90,178
91,128
92,102
92,103
92,104
92,105
92,106
92,108
93,107
94,107
95,121
96,121
97,207
98,156
99,127
99,169
99,170
100,107
101,194
102,214
103,121
104,117
105,175
106,154
106,173
106,184
106,211
107,109
107,110
107,111
107,112
107,113
107,114
107,115
107,116
107,117
108,117
108,125
108,127
108,149
109,121
110,121
111,207
112,156
113,118
113,136
114,118
114,120
114,124
114,125
114,126
115,135
115,202
115,213
116,121
117,119
117,122
117,123
118,128
119,128
120,214
121,129
121,130
121,131
121,132
121,133
121,134
121,136
122,207
123,156
124,156
125,135
125,137
125,168
125,193
125,194
126,127
127,222
128,138
128,139
128,140
128,141
128,142
128,143
128,144
128,145
128,146
128,147
128,148
129,156
130,158
130,161
131,149
132,159
132,178
133,205
133,245
134,156
135,207
136,207
137,154
137,190
137,197
138,150
138,153
138,177
139,172
139,173
140,150
141,208
141,214
141,246
142,154
142,156
143,152
143,154
143,167
144,150
144,210
145,151
145,159
145,172
145,175
146,161
146,191
146,192
147,159
149,152
150,222
151,207
152,156
153,155
153,157
153,158
153,182
154,155
154,198
154,210
155,213
156,159
156,160
156,162
156,163
156,164
156,165
156,166
157,161
157,167
157,192
158,168
158,173
158,199
159,213
160,178
161,207
162,170
162,174
163,194
165,171
165,176
166,221
166,244
167,169
167,172
167,173
167,175
168,222
169,178
170,178
171,178
172,179
172,198
173,183
173,203
174,182
174,208
175,180
175,181
176,177
176,183
177,222
178,184
178,185
178,186
178,187
178,188
178,189
178,190
178,193
179,207
180,207
181,207
182,191
182,192
183,204
184,213
185,246
185,247
186,204
186,210
187,249
188,197
189,194
190,199
190,202
190,208
192,220
192,244
192,250
194,195
194,196
194,197
195,222
196,198
196,201
196,203
197,198
197,199
197,200
197,202
197,204
198,214
199,207
200,206
200,211
201,210
201,211
203,205
203,208
204,209
205,213
206,214
207,215
207,216
207,217
207,218
207,219
207,221
208,220
211,212
212,222
213,223
213,224
213,225
213,226
213,227
214,228
214,229
214,230
214,231
214,232
214,233
214,234
214,235
214,236
214,237
214,238
215,247
219,239
220,249
222,240
222,241
222,242
222,243
226,247
227,244
229,245
231,247
232,244
233,247
239,245
239,248
241,246
241,247
242,245
247,248
247,249
248,250

<end>
